p cnf 536 1417
3 0
7 0
65 0
9 18 0
-9 -18 0
68 0
27 36 0
-27 -36 0
91 93 0
-91 -93 0
99 101 0
-99 -101 0
45 0
-9 -369 137 0
-9 -369 -137 0
-137 -370 146 0
-137 -370 -146 0
-146 -371 155 0
-146 -371 -155 0
-9 -372 156 0
-9 -372 -137 0
-137 -373 165 0
-137 -373 -146 0
-146 -374 174 0
-146 -374 -155 0
-18 -375 137 0
-18 -375 -156 0
-156 -376 146 0
-156 -376 -165 0
-165 -377 155 0
-165 -377 -174 0
-18 -378 156 0
-18 -378 -156 0
-156 -379 165 0
-156 -379 -165 0
-165 -380 174 0
-165 -380 -174 0
-27 -381 175 0
-27 -381 -175 0
-175 -382 184 0
-175 -382 -184 0
-184 -383 193 0
-184 -383 -193 0
-27 -384 194 0
-27 -384 -175 0
-175 -385 203 0
-175 -385 -184 0
-184 -386 212 0
-184 -386 -193 0
-36 -387 175 0
-36 -387 -194 0
-194 -388 184 0
-194 -388 -203 0
-203 -389 193 0
-203 -389 -212 0
-36 -390 194 0
-36 -390 -194 0
-194 -391 203 0
-194 -391 -203 0
-203 -392 212 0
-203 -392 -212 0
-9 -393 137 0
-9 -393 -137 0
-137 -394 146 0
-137 -394 -146 0
-146 -395 155 0
-146 -395 -155 0
-9 -396 156 0
-9 -396 -137 0
-137 -397 165 0
-137 -397 -146 0
-146 -398 174 0
-146 -398 -155 0
-18 -399 137 0
-18 -399 -156 0
-156 -400 146 0
-156 -400 -165 0
-165 -401 155 0
-165 -401 -174 0
-18 -402 156 0
-18 -402 -156 0
-156 -403 165 0
-156 -403 -165 0
-165 -404 174 0
-165 -404 -174 0
-27 -405 175 0
-27 -405 -175 0
-175 -406 184 0
-175 -406 -184 0
-184 -407 193 0
-184 -407 -193 0
-27 -408 194 0
-27 -408 -175 0
-175 -409 203 0
-175 -409 -184 0
-184 -410 212 0
-184 -410 -193 0
-36 -411 175 0
-36 -411 -194 0
-194 -412 184 0
-194 -412 -203 0
-203 -413 193 0
-203 -413 -212 0
-36 -414 194 0
-36 -414 -194 0
-194 -415 203 0
-194 -415 -203 0
-203 -416 212 0
-203 -416 -212 0
-9 -417 269 0
-9 -417 -213 0
-137 -418 278 0
-137 -418 -218 0
-146 -419 287 0
-146 -419 -223 0
-9 -420 269 0
-9 -420 -224 0
-137 -421 278 0
-137 -421 -229 0
-146 -422 287 0
-146 -422 -234 0
-18 -423 269 0
-18 -423 -235 0
-156 -424 278 0
-156 -424 -240 0
-165 -425 287 0
-165 -425 -245 0
-18 -426 269 0
-18 -426 -246 0
-156 -427 278 0
-156 -427 -251 0
-165 -428 287 0
-165 -428 -256 0
-27 -429 288 0
-27 -429 -213 0
-175 -430 297 0
-175 -430 -218 0
-184 -431 306 0
-184 -431 -223 0
-27 -432 288 0
-27 -432 -224 0
-175 -433 297 0
-175 -433 -229 0
-184 -434 306 0
-184 -434 -234 0
-36 -435 288 0
-36 -435 -235 0
-194 -436 297 0
-194 -436 -240 0
-203 -437 306 0
-203 -437 -245 0
-36 -438 288 0
-36 -438 -246 0
-194 -439 297 0
-194 -439 -251 0
-203 -440 306 0
-203 -440 -256 0
-9 -441 213 0
-9 -441 -269 0
-137 -442 218 0
-137 -442 -278 0
-146 -443 223 0
-146 -443 -287 0
-9 -444 224 0
-9 -444 -269 0
-137 -445 229 0
-137 -445 -278 0
-146 -446 234 0
-146 -446 -287 0
-18 -447 235 0
-18 -447 -269 0
-156 -448 240 0
-156 -448 -278 0
-165 -449 245 0
-165 -449 -287 0
-18 -450 246 0
-18 -450 -269 0
-156 -451 251 0
-156 -451 -278 0
-165 -452 256 0
-165 -452 -287 0
-27 -453 213 0
-27 -453 -288 0
-175 -454 218 0
-175 -454 -297 0
-184 -455 223 0
-184 -455 -306 0
-27 -456 224 0
-27 -456 -288 0
-175 -457 229 0
-175 -457 -297 0
-184 -458 234 0
-184 -458 -306 0
-36 -459 235 0
-36 -459 -288 0
-194 -460 240 0
-194 -460 -297 0
-203 -461 245 0
-203 -461 -306 0
-36 -462 246 0
-36 -462 -288 0
-194 -463 251 0
-194 -463 -297 0
-203 -464 256 0
-203 -464 -306 0
-87 -513 347 0
-87 -513 -307 0
-307 -514 352 0
-307 -514 -309 0
-309 -515 357 0
-309 -515 -311 0
-89 -516 347 0
-89 -516 -312 0
-312 -517 352 0
-312 -517 -314 0
-314 -518 357 0
-314 -518 -316 0
-91 -519 347 0
-91 -519 -317 0
-317 -520 352 0
-317 -520 -319 0
-319 -521 357 0
-319 -521 -321 0
-93 -522 347 0
-93 -522 -322 0
-322 -523 352 0
-322 -523 -324 0
-324 -524 357 0
-324 -524 -326 0
-95 -525 358 0
-95 -525 -327 0
-327 -526 363 0
-327 -526 -329 0
-329 -527 368 0
-329 -527 -331 0
-97 -528 358 0
-97 -528 -332 0
-332 -529 363 0
-332 -529 -334 0
-334 -530 368 0
-334 -530 -336 0
-99 -531 358 0
-99 -531 -337 0
-337 -532 363 0
-337 -532 -339 0
-339 -533 368 0
-339 -533 -341 0
-101 -534 358 0
-101 -534 -342 0
-342 -535 363 0
-342 -535 -344 0
-344 -536 368 0
-344 -536 -346 0
-1 113 0
1 -113 0
-113 114 0
113 -114 0
-114 115 0
114 -115 0
-2 116 0
2 -116 0
-116 117 0
116 -117 0
-117 118 0
117 -118 0
-3 119 0
3 -119 0
-119 120 0
119 -120 0
-120 121 0
120 -121 0
-4 122 0
4 -122 0
-122 123 0
122 -123 0
-123 124 0
123 -124 0
-5 125 0
5 -125 0
-125 126 0
125 -126 0
-126 127 0
126 -127 0
-6 128 0
6 -128 0
-128 129 0
128 -129 0
-129 130 0
129 -130 0
-7 131 0
7 -131 0
-131 132 0
131 -132 0
-132 133 0
132 -133 0
-8 134 0
8 -134 0
-134 135 0
134 -135 0
-135 136 0
135 -136 0
-9 -369 10 0
-10 9 0
-10 369 0
-9 -372 11 0
-11 9 0
-11 372 0
-9 -393 12 0
-12 9 0
-12 393 0
-9 -396 13 0
-13 9 0
-13 396 0
10 11 12 13 -9 137 0
-9 -369 14 0
-14 9 0
-14 369 0
-18 -375 15 0
-15 18 0
-15 375 0
-9 -393 16 0
-16 9 0
-16 393 0
-18 -399 17 0
-17 18 0
-17 399 0
14 15 16 17 9 -137 0
-137 -370 138 0
-138 137 0
-138 370 0
-137 -373 139 0
-139 137 0
-139 373 0
-137 -394 140 0
-140 137 0
-140 394 0
-137 -397 141 0
-141 137 0
-141 397 0
138 139 140 141 -137 146 0
-137 -370 142 0
-142 137 0
-142 370 0
-156 -376 143 0
-143 156 0
-143 376 0
-137 -394 144 0
-144 137 0
-144 394 0
-156 -400 145 0
-145 156 0
-145 400 0
142 143 144 145 137 -146 0
-146 -371 147 0
-147 146 0
-147 371 0
-146 -374 148 0
-148 146 0
-148 374 0
-146 -395 149 0
-149 146 0
-149 395 0
-146 -398 150 0
-150 146 0
-150 398 0
147 148 149 150 -146 155 0
-146 -371 151 0
-151 146 0
-151 371 0
-165 -377 152 0
-152 165 0
-152 377 0
-146 -395 153 0
-153 146 0
-153 395 0
-165 -401 154 0
-154 165 0
-154 401 0
151 152 153 154 146 -155 0
-18 -375 19 0
-19 18 0
-19 375 0
-18 -378 20 0
-20 18 0
-20 378 0
-18 -399 21 0
-21 18 0
-21 399 0
-18 -402 22 0
-22 18 0
-22 402 0
19 20 21 22 -18 156 0
-9 -372 23 0
-23 9 0
-23 372 0
-18 -378 24 0
-24 18 0
-24 378 0
-9 -396 25 0
-25 9 0
-25 396 0
-18 -402 26 0
-26 18 0
-26 402 0
23 24 25 26 18 -156 0
-156 -376 157 0
-157 156 0
-157 376 0
-156 -379 158 0
-158 156 0
-158 379 0
-156 -400 159 0
-159 156 0
-159 400 0
-156 -403 160 0
-160 156 0
-160 403 0
157 158 159 160 -156 165 0
-137 -373 161 0
-161 137 0
-161 373 0
-156 -379 162 0
-162 156 0
-162 379 0
-137 -397 163 0
-163 137 0
-163 397 0
-156 -403 164 0
-164 156 0
-164 403 0
161 162 163 164 156 -165 0
-165 -377 166 0
-166 165 0
-166 377 0
-165 -380 167 0
-167 165 0
-167 380 0
-165 -401 168 0
-168 165 0
-168 401 0
-165 -404 169 0
-169 165 0
-169 404 0
166 167 168 169 -165 174 0
-146 -374 170 0
-170 146 0
-170 374 0
-165 -380 171 0
-171 165 0
-171 380 0
-146 -398 172 0
-172 146 0
-172 398 0
-165 -404 173 0
-173 165 0
-173 404 0
170 171 172 173 165 -174 0
-27 -381 28 0
-28 27 0
-28 381 0
-27 -384 29 0
-29 27 0
-29 384 0
-27 -405 30 0
-30 27 0
-30 405 0
-27 -408 31 0
-31 27 0
-31 408 0
28 29 30 31 -27 175 0
-27 -381 32 0
-32 27 0
-32 381 0
-36 -387 33 0
-33 36 0
-33 387 0
-27 -405 34 0
-34 27 0
-34 405 0
-36 -411 35 0
-35 36 0
-35 411 0
32 33 34 35 27 -175 0
-175 -382 176 0
-176 175 0
-176 382 0
-175 -385 177 0
-177 175 0
-177 385 0
-175 -406 178 0
-178 175 0
-178 406 0
-175 -409 179 0
-179 175 0
-179 409 0
176 177 178 179 -175 184 0
-175 -382 180 0
-180 175 0
-180 382 0
-194 -388 181 0
-181 194 0
-181 388 0
-175 -406 182 0
-182 175 0
-182 406 0
-194 -412 183 0
-183 194 0
-183 412 0
180 181 182 183 175 -184 0
-184 -383 185 0
-185 184 0
-185 383 0
-184 -386 186 0
-186 184 0
-186 386 0
-184 -407 187 0
-187 184 0
-187 407 0
-184 -410 188 0
-188 184 0
-188 410 0
185 186 187 188 -184 193 0
-184 -383 189 0
-189 184 0
-189 383 0
-203 -389 190 0
-190 203 0
-190 389 0
-184 -407 191 0
-191 184 0
-191 407 0
-203 -413 192 0
-192 203 0
-192 413 0
189 190 191 192 184 -193 0
-36 -387 37 0
-37 36 0
-37 387 0
-36 -390 38 0
-38 36 0
-38 390 0
-36 -411 39 0
-39 36 0
-39 411 0
-36 -414 40 0
-40 36 0
-40 414 0
37 38 39 40 -36 194 0
-27 -384 41 0
-41 27 0
-41 384 0
-36 -390 42 0
-42 36 0
-42 390 0
-27 -408 43 0
-43 27 0
-43 408 0
-36 -414 44 0
-44 36 0
-44 414 0
41 42 43 44 36 -194 0
-194 -388 195 0
-195 194 0
-195 388 0
-194 -391 196 0
-196 194 0
-196 391 0
-194 -412 197 0
-197 194 0
-197 412 0
-194 -415 198 0
-198 194 0
-198 415 0
195 196 197 198 -194 203 0
-175 -385 199 0
-199 175 0
-199 385 0
-194 -391 200 0
-200 194 0
-200 391 0
-175 -409 201 0
-201 175 0
-201 409 0
-194 -415 202 0
-202 194 0
-202 415 0
199 200 201 202 194 -203 0
-203 -389 204 0
-204 203 0
-204 389 0
-203 -392 205 0
-205 203 0
-205 392 0
-203 -413 206 0
-206 203 0
-206 413 0
-203 -416 207 0
-207 203 0
-207 416 0
204 205 206 207 -203 212 0
-184 -386 208 0
-208 184 0
-208 386 0
-203 -392 209 0
-209 203 0
-209 392 0
-184 -410 210 0
-210 184 0
-210 410 0
-203 -416 211 0
-211 203 0
-211 416 0
208 209 210 211 203 -212 0
-9 -417 46 0
-46 9 0
-46 417 0
-27 -429 47 0
-47 27 0
-47 429 0
46 47 -45 213 0
-9 -441 48 0
-48 9 0
-48 441 0
-27 -453 49 0
-49 27 0
-49 453 0
48 49 45 -213 0
-137 -418 214 0
-214 137 0
-214 418 0
-175 -430 215 0
-215 175 0
-215 430 0
214 215 -213 218 0
-137 -442 216 0
-216 137 0
-216 442 0
-175 -454 217 0
-217 175 0
-217 454 0
216 217 213 -218 0
-146 -419 219 0
-219 146 0
-219 419 0
-184 -431 220 0
-220 184 0
-220 431 0
219 220 -218 223 0
-146 -443 221 0
-221 146 0
-221 443 0
-184 -455 222 0
-222 184 0
-222 455 0
221 222 218 -223 0
-9 -420 51 0
-51 9 0
-51 420 0
-27 -432 52 0
-52 27 0
-52 432 0
51 52 -50 224 0
-9 -444 53 0
-53 9 0
-53 444 0
-27 -456 54 0
-54 27 0
-54 456 0
53 54 50 -224 0
-137 -421 225 0
-225 137 0
-225 421 0
-175 -433 226 0
-226 175 0
-226 433 0
225 226 -224 229 0
-137 -445 227 0
-227 137 0
-227 445 0
-175 -457 228 0
-228 175 0
-228 457 0
227 228 224 -229 0
-146 -422 230 0
-230 146 0
-230 422 0
-184 -434 231 0
-231 184 0
-231 434 0
230 231 -229 234 0
-146 -446 232 0
-232 146 0
-232 446 0
-184 -458 233 0
-233 184 0
-233 458 0
232 233 229 -234 0
-18 -423 56 0
-56 18 0
-56 423 0
-36 -435 57 0
-57 36 0
-57 435 0
56 57 -55 235 0
-18 -447 58 0
-58 18 0
-58 447 0
-36 -459 59 0
-59 36 0
-59 459 0
58 59 55 -235 0
-156 -424 236 0
-236 156 0
-236 424 0
-194 -436 237 0
-237 194 0
-237 436 0
236 237 -235 240 0
-156 -448 238 0
-238 156 0
-238 448 0
-194 -460 239 0
-239 194 0
-239 460 0
238 239 235 -240 0
-165 -425 241 0
-241 165 0
-241 425 0
-203 -437 242 0
-242 203 0
-242 437 0
241 242 -240 245 0
-165 -449 243 0
-243 165 0
-243 449 0
-203 -461 244 0
-244 203 0
-244 461 0
243 244 240 -245 0
-18 -426 61 0
-61 18 0
-61 426 0
-36 -438 62 0
-62 36 0
-62 438 0
61 62 -60 246 0
-18 -450 63 0
-63 18 0
-63 450 0
-36 -462 64 0
-64 36 0
-64 462 0
63 64 60 -246 0
-156 -427 247 0
-247 156 0
-247 427 0
-194 -439 248 0
-248 194 0
-248 439 0
247 248 -246 251 0
-156 -451 249 0
-249 156 0
-249 451 0
-194 -463 250 0
-250 194 0
-250 463 0
249 250 246 -251 0
-165 -428 252 0
-252 165 0
-252 428 0
-203 -440 253 0
-253 203 0
-253 440 0
252 253 -251 256 0
-165 -452 254 0
-254 165 0
-254 452 0
-203 -464 255 0
-255 203 0
-255 464 0
254 255 251 -256 0
-65 257 0
65 -257 0
-257 258 0
257 -258 0
-258 259 0
258 -259 0
-66 260 0
66 -260 0
-260 261 0
260 -261 0
-261 262 0
261 -262 0
-67 263 0
67 -263 0
-263 264 0
263 -264 0
-264 265 0
264 -265 0
-68 266 0
68 -266 0
-266 267 0
266 -267 0
-267 268 0
267 -268 0
-9 -441 70 0
-70 9 0
-70 441 0
-9 -444 71 0
-71 9 0
-71 444 0
-18 -447 72 0
-72 18 0
-72 447 0
-18 -450 73 0
-73 18 0
-73 450 0
70 71 72 73 -69 269 0
-9 -417 74 0
-74 9 0
-74 417 0
-9 -420 75 0
-75 9 0
-75 420 0
-18 -423 76 0
-76 18 0
-76 423 0
-18 -426 77 0
-77 18 0
-77 426 0
74 75 76 77 69 -269 0
-137 -442 270 0
-270 137 0
-270 442 0
-137 -445 271 0
-271 137 0
-271 445 0
-156 -448 272 0
-272 156 0
-272 448 0
-156 -451 273 0
-273 156 0
-273 451 0
270 271 272 273 -269 278 0
-137 -418 274 0
-274 137 0
-274 418 0
-137 -421 275 0
-275 137 0
-275 421 0
-156 -424 276 0
-276 156 0
-276 424 0
-156 -427 277 0
-277 156 0
-277 427 0
274 275 276 277 269 -278 0
-146 -443 279 0
-279 146 0
-279 443 0
-146 -446 280 0
-280 146 0
-280 446 0
-165 -449 281 0
-281 165 0
-281 449 0
-165 -452 282 0
-282 165 0
-282 452 0
279 280 281 282 -278 287 0
-146 -419 283 0
-283 146 0
-283 419 0
-146 -422 284 0
-284 146 0
-284 422 0
-165 -425 285 0
-285 165 0
-285 425 0
-165 -428 286 0
-286 165 0
-286 428 0
283 284 285 286 278 -287 0
-27 -453 79 0
-79 27 0
-79 453 0
-27 -456 80 0
-80 27 0
-80 456 0
-36 -459 81 0
-81 36 0
-81 459 0
-36 -462 82 0
-82 36 0
-82 462 0
79 80 81 82 -78 288 0
-27 -429 83 0
-83 27 0
-83 429 0
-27 -432 84 0
-84 27 0
-84 432 0
-36 -435 85 0
-85 36 0
-85 435 0
-36 -438 86 0
-86 36 0
-86 438 0
83 84 85 86 78 -288 0
-175 -454 289 0
-289 175 0
-289 454 0
-175 -457 290 0
-290 175 0
-290 457 0
-194 -460 291 0
-291 194 0
-291 460 0
-194 -463 292 0
-292 194 0
-292 463 0
289 290 291 292 -288 297 0
-175 -430 293 0
-293 175 0
-293 430 0
-175 -433 294 0
-294 175 0
-294 433 0
-194 -436 295 0
-295 194 0
-295 436 0
-194 -439 296 0
-296 194 0
-296 439 0
293 294 295 296 288 -297 0
-184 -455 298 0
-298 184 0
-298 455 0
-184 -458 299 0
-299 184 0
-299 458 0
-203 -461 300 0
-300 203 0
-300 461 0
-203 -464 301 0
-301 203 0
-301 464 0
298 299 300 301 -297 306 0
-184 -431 302 0
-302 184 0
-302 431 0
-184 -434 303 0
-303 184 0
-303 434 0
-203 -437 304 0
-304 203 0
-304 437 0
-203 -440 305 0
-305 203 0
-305 440 0
302 303 304 305 297 -306 0
-87 -513 88 0
-88 87 0
-88 513 0
88 -87 307 0
87 -307 0
-307 -514 308 0
-308 307 0
-308 514 0
308 -307 309 0
307 -309 0
-309 -515 310 0
-310 309 0
-310 515 0
310 -309 311 0
309 -311 0
-89 -516 90 0
-90 89 0
-90 516 0
90 -89 312 0
89 -312 0
-312 -517 313 0
-313 312 0
-313 517 0
313 -312 314 0
312 -314 0
-314 -518 315 0
-315 314 0
-315 518 0
315 -314 316 0
314 -316 0
-91 -519 92 0
-92 91 0
-92 519 0
92 -91 317 0
91 -317 0
-317 -520 318 0
-318 317 0
-318 520 0
318 -317 319 0
317 -319 0
-319 -521 320 0
-320 319 0
-320 521 0
320 -319 321 0
319 -321 0
-93 -522 94 0
-94 93 0
-94 522 0
94 -93 322 0
93 -322 0
-322 -523 323 0
-323 322 0
-323 523 0
323 -322 324 0
322 -324 0
-324 -524 325 0
-325 324 0
-325 524 0
325 -324 326 0
324 -326 0
-95 -525 96 0
-96 95 0
-96 525 0
96 -95 327 0
95 -327 0
-327 -526 328 0
-328 327 0
-328 526 0
328 -327 329 0
327 -329 0
-329 -527 330 0
-330 329 0
-330 527 0
330 -329 331 0
329 -331 0
-97 -528 98 0
-98 97 0
-98 528 0
98 -97 332 0
97 -332 0
-332 -529 333 0
-333 332 0
-333 529 0
333 -332 334 0
332 -334 0
-334 -530 335 0
-335 334 0
-335 530 0
335 -334 336 0
334 -336 0
-99 -531 100 0
-100 99 0
-100 531 0
100 -99 337 0
99 -337 0
-337 -532 338 0
-338 337 0
-338 532 0
338 -337 339 0
337 -339 0
-339 -533 340 0
-340 339 0
-340 533 0
340 -339 341 0
339 -341 0
-101 -534 102 0
-102 101 0
-102 534 0
102 -101 342 0
101 -342 0
-342 -535 343 0
-343 342 0
-343 535 0
343 -342 344 0
342 -344 0
-344 -536 345 0
-345 344 0
-345 536 0
345 -344 346 0
344 -346 0
-103 347 0
-87 -513 104 0
-104 87 0
-104 513 0
-89 -516 105 0
-105 89 0
-105 516 0
-91 -519 106 0
-106 91 0
-106 519 0
-93 -522 107 0
-107 93 0
-107 522 0
104 105 106 107 103 -347 0
-347 352 0
-307 -514 348 0
-348 307 0
-348 514 0
-312 -517 349 0
-349 312 0
-349 517 0
-317 -520 350 0
-350 317 0
-350 520 0
-322 -523 351 0
-351 322 0
-351 523 0
348 349 350 351 347 -352 0
-352 357 0
-309 -515 353 0
-353 309 0
-353 515 0
-314 -518 354 0
-354 314 0
-354 518 0
-319 -521 355 0
-355 319 0
-355 521 0
-324 -524 356 0
-356 324 0
-356 524 0
353 354 355 356 352 -357 0
-108 358 0
-95 -525 109 0
-109 95 0
-109 525 0
-97 -528 110 0
-110 97 0
-110 528 0
-99 -531 111 0
-111 99 0
-111 531 0
-101 -534 112 0
-112 101 0
-112 534 0
109 110 111 112 108 -358 0
-358 363 0
-327 -526 359 0
-359 327 0
-359 526 0
-332 -529 360 0
-360 332 0
-360 529 0
-337 -532 361 0
-361 337 0
-361 532 0
-342 -535 362 0
-362 342 0
-362 535 0
359 360 361 362 358 -363 0
-363 368 0
-329 -527 364 0
-364 329 0
-364 527 0
-334 -530 365 0
-365 334 0
-365 530 0
-339 -533 366 0
-366 339 0
-366 533 0
-344 -536 367 0
-367 344 0
-367 536 0
364 365 366 367 363 -368 0
-369 -372 0
-369 -375 0
-369 -393 0
-369 -396 0
-369 -399 0
-370 -373 0
-370 -376 0
-370 -394 0
-370 -397 0
-370 -400 0
-371 -374 0
-371 -377 0
-371 -395 0
-371 -398 0
-371 -401 0
-372 -375 0
-372 -378 0
-372 -393 0
-372 -399 0
-372 -402 0
-373 -376 0
-373 -379 0
-373 -394 0
-373 -400 0
-373 -403 0
-374 -377 0
-374 -380 0
-374 -395 0
-374 -401 0
-374 -404 0
-375 -378 0
-375 -393 0
-375 -396 0
-375 -402 0
-376 -379 0
-376 -394 0
-376 -397 0
-376 -403 0
-377 -380 0
-377 -395 0
-377 -398 0
-377 -404 0
-378 -396 0
-378 -399 0
-378 -402 0
-379 -397 0
-379 -400 0
-379 -403 0
-380 -398 0
-380 -401 0
-380 -404 0
-381 -384 0
-381 -387 0
-381 -405 0
-381 -408 0
-381 -411 0
-382 -385 0
-382 -388 0
-382 -406 0
-382 -409 0
-382 -412 0
-383 -386 0
-383 -389 0
-383 -407 0
-383 -410 0
-383 -413 0
-384 -387 0
-384 -390 0
-384 -405 0
-384 -411 0
-384 -414 0
-385 -388 0
-385 -391 0
-385 -406 0
-385 -412 0
-385 -415 0
-386 -389 0
-386 -392 0
-386 -407 0
-386 -413 0
-386 -416 0
-387 -390 0
-387 -405 0
-387 -408 0
-387 -414 0
-388 -391 0
-388 -406 0
-388 -409 0
-388 -415 0
-389 -392 0
-389 -407 0
-389 -410 0
-389 -416 0
-390 -408 0
-390 -411 0
-390 -414 0
-391 -409 0
-391 -412 0
-391 -415 0
-392 -410 0
-392 -413 0
-392 -416 0
-393 -396 0
-393 -399 0
-394 -397 0
-394 -400 0
-395 -398 0
-395 -401 0
-396 -399 0
-396 -402 0
-397 -400 0
-397 -403 0
-398 -401 0
-398 -404 0
-399 -402 0
-400 -403 0
-401 -404 0
-405 -408 0
-405 -411 0
-406 -409 0
-406 -412 0
-407 -410 0
-407 -413 0
-408 -411 0
-408 -414 0
-409 -412 0
-409 -415 0
-410 -413 0
-410 -416 0
-411 -414 0
-412 -415 0
-413 -416 0
-417 -441 0
-417 -444 0
-417 -447 0
-417 -450 0
-417 -453 0
-418 -442 0
-418 -445 0
-418 -448 0
-418 -451 0
-418 -454 0
-419 -443 0
-419 -446 0
-419 -449 0
-419 -452 0
-419 -455 0
-420 -441 0
-420 -444 0
-420 -447 0
-420 -450 0
-420 -456 0
-421 -442 0
-421 -445 0
-421 -448 0
-421 -451 0
-421 -457 0
-422 -443 0
-422 -446 0
-422 -449 0
-422 -452 0
-422 -458 0
-423 -441 0
-423 -444 0
-423 -447 0
-423 -450 0
-423 -459 0
-424 -442 0
-424 -445 0
-424 -448 0
-424 -451 0
-424 -460 0
-425 -443 0
-425 -446 0
-425 -449 0
-425 -452 0
-425 -461 0
-426 -441 0
-426 -444 0
-426 -447 0
-426 -450 0
-426 -462 0
-427 -442 0
-427 -445 0
-427 -448 0
-427 -451 0
-427 -463 0
-428 -443 0
-428 -446 0
-428 -449 0
-428 -452 0
-428 -464 0
-429 -441 0
-429 -453 0
-429 -456 0
-429 -459 0
-429 -462 0
-430 -442 0
-430 -454 0
-430 -457 0
-430 -460 0
-430 -463 0
-431 -443 0
-431 -455 0
-431 -458 0
-431 -461 0
-431 -464 0
-432 -444 0
-432 -453 0
-432 -456 0
-432 -459 0
-432 -462 0
-433 -445 0
-433 -454 0
-433 -457 0
-433 -460 0
-433 -463 0
-434 -446 0
-434 -455 0
-434 -458 0
-434 -461 0
-434 -464 0
-435 -447 0
-435 -453 0
-435 -456 0
-435 -459 0
-435 -462 0
-436 -448 0
-436 -454 0
-436 -457 0
-436 -460 0
-436 -463 0
-437 -449 0
-437 -455 0
-437 -458 0
-437 -461 0
-437 -464 0
-438 -450 0
-438 -453 0
-438 -456 0
-438 -459 0
-438 -462 0
-439 -451 0
-439 -454 0
-439 -457 0
-439 -460 0
-439 -463 0
-440 -452 0
-440 -455 0
-440 -458 0
-440 -461 0
-440 -464 0
